assign.dat
data;

param m := 4;

param n := 3;

param c	:	1	2	3 :=
	1		2	5	3
	2		11	1	7
	3		15	17	1
	4		17	18	19;


end;


modificacao