assign.lp
\* Problem: assign *\

Minimize
 obj: + 2 x(1,1) + 5 x(1,2) + 3 x(1,3) + 11 x(2,1) + x(2,2) + 7 x(2,3)
 + 15 x(3,1) + 17 x(3,2) + x(3,3) + 17 x(4,1) + 18 x(4,2) + 19 x(4,3)

Subject To
 oper(1): + x(1,1) + x(1,2) + x(1,3) <= 1
 oper(2): + x(2,1) + x(2,2) + x(2,3) <= 1
 oper(3): + x(3,1) + x(3,2) + x(3,3) <= 1
 oper(4): + x(4,1) + x(4,2) + x(4,3) <= 1
 tarefas(1): + x(1,1) + x(2,1) + x(3,1) + x(4,1) = 1
 tarefas(2): + x(1,2) + x(2,2) + x(3,2) + x(4,2) = 1
 tarefas(3): + x(1,3) + x(2,3) + x(3,3) + x(4,3) = 1

Bounds
 0 <= x(1,1) <= 1
 0 <= x(1,2) <= 1
 0 <= x(1,3) <= 1
 0 <= x(2,1) <= 1
 0 <= x(2,2) <= 1
 0 <= x(2,3) <= 1
 0 <= x(3,1) <= 1
 0 <= x(3,2) <= 1
 0 <= x(3,3) <= 1
 0 <= x(4,1) <= 1
 0 <= x(4,2) <= 1
 0 <= x(4,3) <= 1

Generals
 x(1,1)
 x(1,2)
 x(1,3)
 x(2,1)
 x(2,2)
 x(2,3)
 x(3,1)
 x(3,2)
 x(3,3)
 x(4,1)
 x(4,2)
 x(4,3)

End
